language ESSENCE' 1.0

letting fixed be 
[
    [0,9,0,8,0,1,5,2,0],
    [8,5,1,0,9,2,6,0,4],
    [0,2,0,0,0,5,9,1,8],
    [0,0,9,6,5,0,0,4,0],
    [4,0,0,0,0,0,0,0,6],
    [0,6,0,0,8,4,1,0,0],
    [0,7,0,0,0,6,4,8,0],
    [0,0,6,4,7,8,2,0,5],
    [0,4,8,5,0,9,0,6,0]
]